N-Queen/Queens.lp
\ LP format - for model browsing. Use MPS format to capture full model detail.
Minimize
  x_11 + x_12 + x_13 + x_14 + x_15 + x_16 + x_17 + x_18 + x_21 + x_22 + x_23
   + x_24 + x_25 + x_26 + x_27 + x_28 + x_31 + x_32 + x_33 + x_34 + x_35
   + x_36 + x_37 + x_38 + x_41 + x_42 + x_43 + x_44 + x_45 + x_46 + x_47
   + x_48 + x_51 + x_52 + x_53 + x_54 + x_55 + x_56 + x_57 + x_58 + x_61
   + x_62 + x_63 + x_64 + x_65 + x_66 + x_67 + x_68 + x_71 + x_72 + x_73
   + x_74 + x_75 + x_76 + x_77 + x_78 + x_81 + x_82 + x_83 + x_84 + x_85
   + x_86 + x_87 + x_88
Subject To
 R0: x_11 + x_12 + x_13 + x_14 + x_15 + x_16 + x_17 + x_18 + x_21 + x_22
   + x_23 + x_24 + x_25 + x_26 + x_27 + x_28 + x_31 + x_32 + x_33 + x_34
   + x_35 + x_36 + x_37 + x_38 + x_41 + x_42 + x_43 + x_44 + x_45 + x_46
   + x_47 + x_48 + x_51 + x_52 + x_53 + x_54 + x_55 + x_56 + x_57 + x_58
   + x_61 + x_62 + x_63 + x_64 + x_65 + x_66 + x_67 + x_68 + x_71 + x_72
   + x_73 + x_74 + x_75 + x_76 + x_77 + x_78 + x_81 + x_82 + x_83 + x_84
   + x_85 + x_86 + x_87 + x_88 = 8
 R1: x_11 + x_12 + x_13 + x_14 + x_15 + x_16 + x_17 + x_18 <= 1
 R2: x_21 + x_22 + x_23 + x_24 + x_25 + x_26 + x_27 + x_28 <= 1
 R3: x_31 + x_32 + x_33 + x_34 + x_35 + x_36 + x_37 + x_38 <= 1
 R4: x_41 + x_42 + x_43 + x_44 + x_45 + x_46 + x_47 + x_48 <= 1
 R5: x_51 + x_52 + x_53 + x_54 + x_55 + x_56 + x_57 + x_58 <= 1
 R6: x_61 + x_62 + x_63 + x_64 + x_65 + x_66 + x_67 + x_68 <= 1
 R7: x_71 + x_72 + x_73 + x_74 + x_75 + x_76 + x_77 + x_78 <= 1
 R8: x_81 + x_82 + x_83 + x_84 + x_85 + x_86 + x_87 + x_88 <= 1
 R9: x_11 + x_21 + x_31 + x_41 + x_51 + x_61 + x_71 + x_81 <= 1
 R10: x_12 + x_22 + x_32 + x_42 + x_52 + x_62 + x_72 + x_82 <= 1
 R11: x_13 + x_23 + x_33 + x_43 + x_53 + x_63 + x_73 + x_83 <= 1
 R12: x_14 + x_24 + x_34 + x_44 + x_54 + x_64 + x_74 + x_84 <= 1
 R13: x_15 + x_25 + x_35 + x_45 + x_55 + x_65 + x_75 + x_85 <= 1
 R14: x_16 + x_26 + x_36 + x_46 + x_56 + x_66 + x_76 + x_86 <= 1
 R15: x_17 + x_27 + x_37 + x_47 + x_57 + x_67 + x_77 + x_87 <= 1
 R16: x_18 + x_28 + x_38 + x_48 + x_58 + x_68 + x_78 + x_88 <= 1
 R17: x_18 <= 1
 R18: x_17 + x_28 <= 1
 R19: x_16 + x_27 + x_38 <= 1
 R20: x_15 + x_26 + x_37 + x_48 <= 1
 R21: x_14 + x_25 + x_36 + x_47 + x_58 <= 1
 R22: x_13 + x_24 + x_35 + x_46 + x_57 + x_68 <= 1
 R23: x_12 + x_23 + x_34 + x_45 + x_56 + x_67 + x_78 <= 1
 R24: x_11 + x_22 + x_33 + x_44 + x_55 + x_66 + x_77 + x_88 <= 1
 R25: x_21 + x_32 + x_43 + x_54 + x_65 + x_76 + x_87 <= 1
 R26: x_31 + x_42 + x_53 + x_64 + x_75 + x_86 <= 1
 R27: x_41 + x_52 + x_63 + x_74 + x_85 <= 1
 R28: x_51 + x_62 + x_73 + x_84 <= 1
 R29: x_61 + x_72 + x_83 <= 1
 R30: x_71 + x_82 <= 1
 R31: x_81 <= 1
 R32: x_11 <= 1
 R33: x_12 + x_21 <= 1
 R34: x_13 + x_22 + x_31 <= 1
 R35: x_14 + x_23 + x_32 + x_41 <= 1
 R36: x_15 + x_24 + x_33 + x_42 + x_51 <= 1
 R37: x_16 + x_25 + x_34 + x_43 + x_52 + x_61 <= 1
 R38: x_17 + x_26 + x_35 + x_44 + x_53 + x_62 + x_71 <= 1
 R39: x_18 + x_27 + x_36 + x_45 + x_54 + x_63 + x_72 + x_81 <= 1
 R40: x_28 + x_37 + x_46 + x_55 + x_64 + x_73 + x_82 <= 1
 R41: x_38 + x_47 + x_56 + x_65 + x_74 + x_83 <= 1
 R42: x_48 + x_57 + x_66 + x_75 + x_84 <= 1
 R43: x_58 + x_67 + x_76 + x_85 <= 1
 R44: x_68 + x_77 + x_86 <= 1
 R45: x_78 + x_87 <= 1
 R46: x_88 <= 1
Bounds
Binaries
 x_11 x_12 x_13 x_14 x_15 x_16 x_17 x_18 x_21 x_22 x_23 x_24 x_25 x_26 x_27
 x_28 x_31 x_32 x_33 x_34 x_35 x_36 x_37 x_38 x_41 x_42 x_43 x_44 x_45 x_46
 x_47 x_48 x_51 x_52 x_53 x_54 x_55 x_56 x_57 x_58 x_61 x_62 x_63 x_64 x_65
 x_66 x_67 x_68 x_71 x_72 x_73 x_74 x_75 x_76 x_77 x_78 x_81 x_82 x_83 x_84
 x_85 x_86 x_87 x_88
End
