N-Queen/Queens.sol
# Objective value = 7.9999999999999982e+00
x_11 1.3877787807814457e-16
x_12 0
x_13 0
x_14 0
x_15 9.9999999999999989e-01
x_16 0
x_17 0
x_18 2.2204460492503131e-16
x_21 0
x_22 0
x_23 0
x_24 0
x_25 0
x_26 0
x_27 -2.2204460492503131e-16
x_28 1.0000000000000004e+00
x_31 -4.0245584642661925e-16
x_32 0
x_33 0
x_34 1
x_35 0
x_36 0
x_37 0
x_38 0
x_41 1.0000000000000002e+00
x_42 4.0245584642661925e-16
x_43 0
x_44 0
x_45 0
x_46 0
x_47 0
x_48 0
x_51 0
x_52 0
x_53 1
x_54 0
x_55 0
x_56 0
x_57 0
x_58 0
x_61 0
x_62 0
x_63 0
x_64 0
x_65 -8.3266726846886741e-17
x_66 1.0000000000000004e+00
x_67 0
x_68 -6.6613381477509392e-16
x_71 0
x_72 1
x_73 0
x_74 0
x_75 0
x_76 0
x_77 -4.4408920985006262e-16
x_78 0
x_81 0
x_82 -4.0245584642661925e-16
x_83 0
x_84 0
x_85 0
x_86 0
x_87 1.0000000000000002e+00
x_88 0
